c nIsolatedPIs 0
c maxPI 11
p cnf 452 1324
c gate 12 7 8 0
7 -12 0
8 -12 0
-7 -8 12 0
c gate 13 -3 -12 0
-3 -13 0
-12 -13 0
3 12 13 0
c gate 14 9 -13 0
9 -14 0
-13 -14 0
-9 13 14 0
c gate 15 10 -14 0
10 -15 0
-14 -15 0
-10 14 15 0
c gate 16 8 9 0
8 -16 0
9 -16 0
-8 -9 16 0
c gate 17 7 -10 0
7 -17 0
-10 -17 0
-7 10 17 0
c gate 18 16 17 0
16 -18 0
17 -18 0
-16 -17 18 0
c gate 19 -15 -18 0
-15 -19 0
-18 -19 0
15 18 19 0
c gate 20 -2 -19 0
-2 -20 0
-19 -20 0
2 19 20 0
c gate 21 -2 10 0
-2 -21 0
10 -21 0
2 -10 21 0
c gate 22 10 16 0
10 -22 0
16 -22 0
-10 -16 22 0
c gate 23 -3 -22 0
-3 -23 0
-22 -23 0
3 22 23 0
c gate 24 -21 -23 0
-21 -24 0
-23 -24 0
21 23 24 0
c gate 25 -20 -24 0
-20 -25 0
-24 -25 0
20 24 25 0
c gate 26 4 5 0
4 -26 0
5 -26 0
-4 -5 26 0
c gate 27 8 -9 0
8 -27 0
-9 -27 0
-8 9 27 0
c gate 28 -26 27 0
-26 -28 0
27 -28 0
26 -27 28 0
c gate 29 -7 -8 0
-7 -29 0
-8 -29 0
7 8 29 0
c gate 30 7 9 0
7 -30 0
9 -30 0
-7 -9 30 0
c gate 31 -29 -30 0
-29 -31 0
-30 -31 0
29 30 31 0
c gate 32 5 -31 0
5 -32 0
-31 -32 0
-5 31 32 0
c gate 33 9 29 0
9 -33 0
29 -33 0
-9 -29 33 0
c gate 34 -32 -33 0
-32 -34 0
-33 -34 0
32 33 34 0
c gate 35 -28 34 0
-28 -35 0
34 -35 0
28 -34 35 0
c gate 36 -2 -7 0
-2 -36 0
-7 -36 0
2 7 36 0
c gate 37 3 -36 0
3 -37 0
-36 -37 0
-3 36 37 0
c gate 38 -35 -37 0
-35 -38 0
-37 -38 0
35 37 38 0
c gate 39 -2 -11 0
-2 -39 0
-11 -39 0
2 11 39 0
c gate 40 2 11 0
2 -40 0
11 -40 0
-2 -11 40 0
c gate 41 -39 -40 0
-39 -41 0
-40 -41 0
39 40 41 0
c gate 42 -3 -25 0
-3 -42 0
-25 -42 0
3 25 42 0
c gate 43 3 25 0
3 -43 0
25 -43 0
-3 -25 43 0
c gate 44 -42 -43 0
-42 -44 0
-43 -44 0
42 43 44 0
c gate 45 41 -44 0
41 -45 0
-44 -45 0
-41 44 45 0
c gate 46 -11 25 0
-11 -46 0
25 -46 0
11 -25 46 0
c gate 47 2 -46 0
2 -47 0
-46 -47 0
-2 46 47 0
c gate 48 -42 47 0
-42 -48 0
47 -48 0
42 -47 48 0
c gate 49 -45 -48 0
-45 -49 0
-48 -49 0
45 48 49 0
c gate 50 -2 -3 0
-2 -50 0
-3 -50 0
2 3 50 0
c gate 51 46 50 0
46 -51 0
50 -51 0
-46 -50 51 0
c gate 52 35 51 0
35 -52 0
51 -52 0
-35 -51 52 0
c gate 53 39 42 0
39 -53 0
42 -53 0
-39 -42 53 0
c gate 54 -52 -53 0
-52 -54 0
-53 -54 0
52 53 54 0
c gate 55 49 54 0
49 -55 0
54 -55 0
-49 -54 55 0
c gate 56 -11 -55 0
-11 -56 0
-55 -56 0
11 55 56 0
c gate 57 -38 -56 0
-38 -57 0
-56 -57 0
38 56 57 0
c gate 58 -10 -11 0
-10 -58 0
-11 -58 0
10 11 58 0
c gate 59 50 58 0
50 -59 0
58 -59 0
-50 -58 59 0
c gate 60 -55 -59 0
-55 -60 0
-59 -60 0
55 59 60 0
c gate 61 9 -10 0
9 -61 0
-10 -61 0
-9 10 61 0
c gate 62 -9 -11 0
-9 -62 0
-11 -62 0
9 11 62 0
c gate 63 -61 -62 0
-61 -63 0
-62 -63 0
61 62 63 0
c gate 64 -35 63 0
-35 -64 0
63 -64 0
35 -63 64 0
c gate 65 35 58 0
35 -65 0
58 -65 0
-35 -58 65 0
c gate 66 8 -65 0
8 -66 0
-65 -66 0
-8 65 66 0
c gate 67 -64 66 0
-64 -67 0
66 -67 0
64 -66 67 0
c gate 68 -11 35 0
-11 -68 0
35 -68 0
11 -35 68 0
c gate 69 9 -11 0
9 -69 0
-11 -69 0
-9 11 69 0
c gate 70 -34 -69 0
-34 -70 0
-69 -70 0
34 69 70 0
c gate 71 -8 -70 0
-8 -71 0
-70 -71 0
8 70 71 0
c gate 72 -68 71 0
-68 -72 0
71 -72 0
68 -71 72 0
c gate 73 10 11 0
10 -73 0
11 -73 0
-10 -11 73 0
c gate 74 -8 62 0
-8 -74 0
62 -74 0
8 -62 74 0
c gate 75 -10 74 0
-10 -75 0
74 -75 0
10 -74 75 0
c gate 76 -73 -75 0
-73 -76 0
-75 -76 0
73 75 76 0
c gate 77 -72 76 0
-72 -77 0
76 -77 0
72 -76 77 0
c gate 78 -67 77 0
-67 -78 0
77 -78 0
67 -77 78 0
c gate 79 -35 78 0
-35 -79 0
78 -79 0
35 -78 79 0
c gate 80 60 79 0
60 -80 0
79 -80 0
-60 -79 80 0
c gate 81 35 -78 0
35 -81 0
-78 -81 0
-35 78 81 0
c gate 82 -79 -81 0
-79 -82 0
-81 -82 0
79 81 82 0
c gate 83 -60 82 0
-60 -83 0
82 -83 0
60 -82 83 0
c gate 84 50 -83 0
50 -84 0
-83 -84 0
-50 83 84 0
c gate 85 -80 84 0
-80 -85 0
84 -85 0
80 -84 85 0
c gate 86 -55 85 0
-55 -86 0
85 -86 0
55 -85 86 0
c gate 87 57 -86 0
57 -87 0
-86 -87 0
-57 86 87 0
c gate 88 -9 -87 0
-9 -88 0
-87 -88 0
9 87 88 0
c gate 89 57 88 0
57 -89 0
88 -89 0
-57 -88 89 0
c gate 90 2 -3 0
2 -90 0
-3 -90 0
-2 3 90 0
c gate 91 9 11 0
9 -91 0
11 -91 0
-9 -11 91 0
c gate 92 55 91 0
55 -92 0
91 -92 0
-55 -91 92 0
c gate 93 -90 -92 0
-90 -93 0
-92 -93 0
90 92 93 0
c gate 94 -88 93 0
-88 -94 0
93 -94 0
88 -93 94 0
c gate 95 -85 -94 0
-85 -95 0
-94 -95 0
85 94 95 0
c gate 96 -89 -95 0
-89 -96 0
-95 -96 0
89 95 96 0
c gate 97 25 -96 0
25 -97 0
-96 -97 0
-25 96 97 0
c gate 98 -25 85 0
-25 -98 0
85 -98 0
25 -85 98 0
c gate 99 -86 -90 0
-86 -99 0
-90 -99 0
86 90 99 0
c gate 100 9 -99 0
9 -100 0
-99 -100 0
-9 99 100 0
c gate 101 -98 -100 0
-98 -101 0
-100 -101 0
98 100 101 0
c gate 102 -11 -101 0
-11 -102 0
-101 -102 0
11 101 102 0
c gate 103 -97 -102 0
-97 -103 0
-102 -103 0
97 102 103 0
c gate 104 3 9 0
3 -104 0
9 -104 0
-3 -9 104 0
c gate 105 4 7 0
4 -105 0
7 -105 0
-4 -7 105 0
c gate 106 1 105 0
1 -106 0
105 -106 0
-1 -105 106 0
c gate 107 -8 -9 0
-8 -107 0
-9 -107 0
8 9 107 0
c gate 108 5 107 0
5 -108 0
107 -108 0
-5 -107 108 0
c gate 109 106 108 0
106 -109 0
108 -109 0
-106 -108 109 0
c gate 110 35 -109 0
35 -110 0
-109 -110 0
-35 109 110 0
c gate 111 9 -110 0
9 -111 0
-110 -111 0
-9 110 111 0
c gate 112 7 -110 0
7 -112 0
-110 -112 0
-7 110 112 0
c gate 113 -7 110 0
-7 -113 0
110 -113 0
7 -110 113 0
c gate 114 8 -10 0
8 -114 0
-10 -114 0
-8 10 114 0
c gate 115 -8 10 0
-8 -115 0
10 -115 0
8 -10 115 0
c gate 116 -114 -115 0
-114 -116 0
-115 -116 0
114 115 116 0
c gate 117 -6 8 0
-6 -117 0
8 -117 0
6 -8 117 0
c gate 118 -9 -117 0
-9 -118 0
-117 -118 0
9 117 118 0
c gate 119 -116 -118 0
-116 -119 0
-118 -119 0
116 118 119 0
c gate 120 -113 119 0
-113 -120 0
119 -120 0
113 -119 120 0
c gate 121 -112 120 0
-112 -121 0
120 -121 0
112 -120 121 0
c gate 122 -12 -29 0
-12 -122 0
-29 -122 0
12 29 122 0
c gate 123 6 -122 0
6 -123 0
-122 -123 0
-6 122 123 0
c gate 124 -6 17 0
-6 -124 0
17 -124 0
6 -17 124 0
c gate 125 -123 -124 0
-123 -125 0
-124 -125 0
123 124 125 0
c gate 126 16 125 0
16 -126 0
125 -126 0
-16 -125 126 0
c gate 127 -111 -126 0
-111 -127 0
-126 -127 0
111 126 127 0
c gate 128 -6 -7 0
-6 -128 0
-7 -128 0
6 7 128 0
c gate 129 -8 -128 0
-8 -129 0
-128 -129 0
8 128 129 0
c gate 130 -7 10 0
-7 -130 0
10 -130 0
7 -10 130 0
c gate 131 -17 -130 0
-17 -131 0
-130 -131 0
17 130 131 0
c gate 132 129 131 0
129 -132 0
131 -132 0
-129 -131 132 0
c gate 133 7 116 0
7 -133 0
116 -133 0
-7 -116 133 0
c gate 134 -117 -133 0
-117 -134 0
-133 -134 0
117 133 134 0
c gate 135 -125 -134 0
-125 -135 0
-134 -135 0
125 134 135 0
c gate 136 -132 -135 0
-132 -136 0
-135 -136 0
132 135 136 0
c gate 137 -110 136 0
-110 -137 0
136 -137 0
110 -136 137 0
c gate 138 -127 -137 0
-127 -138 0
-137 -138 0
127 137 138 0
c gate 139 -7 114 0
-7 -139 0
114 -139 0
7 -114 139 0
c gate 140 -133 -139 0
-133 -140 0
-139 -140 0
133 139 140 0
c gate 141 6 -9 0
6 -141 0
-9 -141 0
-6 9 141 0
c gate 142 -140 141 0
-140 -142 0
141 -142 0
140 -141 142 0
c gate 143 -8 9 0
-8 -143 0
9 -143 0
8 -9 143 0
c gate 144 -10 128 0
-10 -144 0
128 -144 0
10 -128 144 0
c gate 145 143 144 0
143 -145 0
144 -145 0
-143 -144 145 0
c gate 146 -142 -145 0
-142 -146 0
-145 -146 0
142 145 146 0
c gate 147 -138 146 0
-138 -147 0
146 -147 0
138 -146 147 0
c gate 148 -121 147 0
-121 -148 0
147 -148 0
121 -147 148 0
c gate 149 110 -148 0
110 -149 0
-148 -149 0
-110 148 149 0
c gate 150 -111 -149 0
-111 -150 0
-149 -150 0
111 149 150 0
c gate 151 -2 -150 0
-2 -151 0
-150 -151 0
2 150 151 0
c gate 152 -3 -148 0
-3 -152 0
-148 -152 0
3 148 152 0
c gate 153 -50 148 0
-50 -153 0
148 -153 0
50 -148 153 0
c gate 154 -36 -153 0
-36 -154 0
-153 -154 0
36 153 154 0
c gate 155 -152 154 0
-152 -155 0
154 -155 0
152 -154 155 0
c gate 156 -151 -155 0
-151 -156 0
-155 -156 0
151 155 156 0
c gate 157 -104 156 0
-104 -157 0
156 -157 0
104 -156 157 0
c gate 158 -25 -157 0
-25 -158 0
-157 -158 0
25 157 158 0
c gate 159 -110 148 0
-110 -159 0
148 -159 0
110 -148 159 0
c gate 160 -149 -159 0
-149 -160 0
-159 -160 0
149 159 160 0
c gate 161 -10 148 0
-10 -161 0
148 -161 0
10 -148 161 0
c gate 162 69 -161 0
69 -162 0
-161 -162 0
-69 161 162 0
c gate 163 160 162 0
160 -163 0
162 -163 0
-160 -162 163 0
c gate 164 11 110 0
11 -164 0
110 -164 0
-11 -110 164 0
c gate 165 -10 164 0
-10 -165 0
164 -165 0
10 -164 165 0
c gate 166 -11 -110 0
-11 -166 0
-110 -166 0
11 110 166 0
c gate 167 -164 -166 0
-164 -167 0
-166 -167 0
164 166 167 0
c gate 168 10 167 0
10 -168 0
167 -168 0
-10 -167 168 0
c gate 169 -165 -168 0
-165 -169 0
-168 -169 0
165 168 169 0
c gate 170 148 -169 0
148 -170 0
-169 -170 0
-148 169 170 0
c gate 171 -9 170 0
-9 -171 0
170 -171 0
9 -170 171 0
c gate 172 -8 -165 0
-8 -172 0
-165 -172 0
8 165 172 0
c gate 173 -171 172 0
-171 -173 0
172 -173 0
171 -172 173 0
c gate 174 -163 173 0
-163 -174 0
173 -174 0
163 -173 174 0
c gate 175 -160 168 0
-160 -175 0
168 -175 0
160 -168 175 0
c gate 176 9 -175 0
9 -176 0
-175 -176 0
-9 175 176 0
c gate 177 73 -148 0
73 -177 0
-148 -177 0
-73 148 177 0
c gate 178 -10 -167 0
-10 -178 0
-167 -178 0
10 167 178 0
c gate 179 -9 -178 0
-9 -179 0
-178 -179 0
9 178 179 0
c gate 180 -177 179 0
-177 -180 0
179 -180 0
177 -179 180 0
c gate 181 -170 180 0
-170 -181 0
180 -181 0
170 -180 181 0
c gate 182 -176 -181 0
-176 -182 0
-181 -182 0
176 181 182 0
c gate 183 58 160 0
58 -183 0
160 -183 0
-58 -160 183 0
c gate 184 10 148 0
10 -184 0
148 -184 0
-10 -148 184 0
c gate 185 91 -184 0
91 -185 0
-184 -185 0
-91 184 185 0
c gate 186 8 -185 0
8 -186 0
-185 -186 0
-8 185 186 0
c gate 187 -183 186 0
-183 -187 0
186 -187 0
183 -186 187 0
c gate 188 -182 187 0
-182 -188 0
187 -188 0
182 -187 188 0
c gate 189 -174 -188 0
-174 -189 0
-188 -189 0
174 188 189 0
c gate 190 -9 148 0
-9 -190 0
148 -190 0
9 -148 190 0
c gate 191 -58 -73 0
-58 -191 0
-73 -191 0
58 73 191 0
c gate 192 -8 -191 0
-8 -192 0
-191 -192 0
8 191 192 0
c gate 193 -11 116 0
-11 -193 0
116 -193 0
11 -116 193 0
c gate 194 -192 -193 0
-192 -194 0
-193 -194 0
192 193 194 0
c gate 195 9 -148 0
9 -195 0
-148 -195 0
-9 148 195 0
c gate 196 -194 -195 0
-194 -196 0
-195 -196 0
194 195 196 0
c gate 197 -190 196 0
-190 -197 0
196 -197 0
190 -196 197 0
c gate 198 143 177 0
143 -198 0
177 -198 0
-143 -177 198 0
c gate 199 -197 -198 0
-197 -199 0
-198 -199 0
197 198 199 0
c gate 200 -189 199 0
-189 -200 0
199 -200 0
189 -199 200 0
c gate 201 -110 200 0
-110 -201 0
200 -201 0
110 -200 201 0
c gate 202 53 161 0
53 -202 0
161 -202 0
-53 -161 202 0
c gate 203 59 -202 0
59 -203 0
-202 -203 0
-59 202 203 0
c gate 204 53 -148 0
53 -204 0
-148 -204 0
-53 148 204 0
c gate 205 49 -204 0
49 -205 0
-204 -205 0
-49 204 205 0
c gate 206 51 -160 0
51 -206 0
-160 -206 0
-51 160 206 0
c gate 207 205 -206 0
205 -207 0
-206 -207 0
-205 206 207 0
c gate 208 203 207 0
203 -208 0
207 -208 0
-203 -207 208 0
c gate 209 -203 -207 0
-203 -209 0
-207 -209 0
203 207 209 0
c gate 210 -208 -209 0
-208 -210 0
-209 -210 0
208 209 210 0
c gate 211 110 -200 0
110 -211 0
-200 -211 0
-110 200 211 0
c gate 212 210 -211 0
210 -212 0
-211 -212 0
-210 211 212 0
c gate 213 -201 212 0
-201 -213 0
212 -213 0
201 -212 213 0
c gate 214 201 -210 0
201 -214 0
-210 -214 0
-201 210 214 0
c gate 215 -200 208 0
-200 -215 0
208 -215 0
200 -208 215 0
c gate 216 50 -215 0
50 -216 0
-215 -216 0
-50 215 216 0
c gate 217 -214 216 0
-214 -217 0
216 -217 0
214 -216 217 0
c gate 218 -213 217 0
-213 -218 0
217 -218 0
213 -217 218 0
c gate 219 158 -218 0
158 -219 0
-218 -219 0
-158 218 219 0
c gate 220 25 157 0
25 -220 0
157 -220 0
-25 -157 220 0
c gate 221 218 220 0
218 -221 0
220 -221 0
-218 -220 221 0
c gate 222 -219 -221 0
-219 -222 0
-221 -222 0
219 221 222 0
c gate 223 9 -222 0
9 -223 0
-222 -223 0
-9 222 223 0
c gate 224 -9 -158 0
-9 -224 0
-158 -224 0
9 158 224 0
c gate 225 -220 224 0
-220 -225 0
224 -225 0
220 -224 225 0
c gate 226 -218 225 0
-218 -226 0
225 -226 0
218 -225 226 0
c gate 227 -223 -226 0
-223 -227 0
-226 -227 0
223 226 227 0
c gate 228 11 -227 0
11 -228 0
-227 -228 0
-11 227 228 0
c gate 229 -11 207 0
-11 -229 0
207 -229 0
11 -207 229 0
c gate 230 218 -229 0
218 -230 0
-229 -230 0
-218 229 230 0
c gate 231 11 -205 0
11 -231 0
-205 -231 0
-11 205 231 0
c gate 232 -218 -231 0
-218 -232 0
-231 -232 0
218 231 232 0
c gate 233 9 -232 0
9 -233 0
-232 -233 0
-9 232 233 0
c gate 234 -230 233 0
-230 -234 0
233 -234 0
230 -233 234 0
c gate 235 -11 -218 0
-11 -235 0
-218 -235 0
11 218 235 0
c gate 236 11 218 0
11 -236 0
218 -236 0
-11 -218 236 0
c gate 237 -235 -236 0
-235 -237 0
-236 -237 0
235 236 237 0
c gate 238 -9 207 0
-9 -238 0
207 -238 0
9 -207 238 0
c gate 239 -237 238 0
-237 -239 0
238 -239 0
237 -238 239 0
c gate 240 -234 -239 0
-234 -240 0
-239 -240 0
234 239 240 0
c gate 241 25 -157 0
25 -241 0
-157 -241 0
-25 157 241 0
c gate 242 -240 241 0
-240 -242 0
241 -242 0
240 -241 242 0
c gate 243 9 -157 0
9 -243 0
-157 -243 0
-9 157 243 0
c gate 244 -9 156 0
-9 -244 0
156 -244 0
9 -156 244 0
c gate 245 -243 -244 0
-243 -245 0
-244 -245 0
243 244 245 0
c gate 246 -220 -245 0
-220 -246 0
-245 -246 0
220 245 246 0
c gate 247 -237 246 0
-237 -247 0
246 -247 0
237 -246 247 0
c gate 248 -229 -231 0
-229 -248 0
-231 -248 0
229 231 248 0
c gate 249 25 248 0
25 -249 0
248 -249 0
-25 -248 249 0
c gate 250 11 -25 0
11 -250 0
-25 -250 0
-11 25 250 0
c gate 251 -46 -250 0
-46 -251 0
-250 -251 0
46 250 251 0
c gate 252 -62 -91 0
-62 -252 0
-91 -252 0
62 91 252 0
c gate 253 251 252 0
251 -253 0
252 -253 0
-251 -252 253 0
c gate 254 229 253 0
229 -254 0
253 -254 0
-229 -253 254 0
c gate 255 -249 -254 0
-249 -255 0
-254 -255 0
249 254 255 0
c gate 256 -218 255 0
-218 -256 0
255 -256 0
218 -255 256 0
c gate 257 248 253 0
248 -257 0
253 -257 0
-248 -253 257 0
c gate 258 218 -257 0
218 -258 0
-257 -258 0
-218 257 258 0
c gate 259 157 -258 0
157 -259 0
-258 -259 0
-157 258 259 0
c gate 260 -256 259 0
-256 -260 0
259 -260 0
256 -259 260 0
c gate 261 62 219 0
62 -261 0
219 -261 0
-62 -219 261 0
c gate 262 245 -251 0
245 -262 0
-251 -262 0
-245 251 262 0
c gate 263 -235 262 0
-235 -263 0
262 -263 0
235 -262 263 0
c gate 264 -261 -263 0
-261 -264 0
-263 -264 0
261 263 264 0
c gate 265 -260 264 0
-260 -265 0
264 -265 0
260 -264 265 0
c gate 266 -247 265 0
-247 -266 0
265 -266 0
247 -265 266 0
c gate 267 -242 266 0
-242 -267 0
266 -267 0
242 -266 267 0
c gate 268 -228 267 0
-228 -268 0
267 -268 0
228 -267 268 0
c gate 269 103 268 0
103 -269 0
268 -269 0
-103 -268 269 0
c gate 270 -103 -268 0
-103 -270 0
-268 -270 0
103 268 270 0
c gate 271 -85 218 0
-85 -271 0
218 -271 0
85 -218 271 0
c gate 272 85 -218 0
85 -272 0
-218 -272 0
-85 218 272 0
c gate 273 2 -10 0
2 -273 0
-10 -273 0
-2 10 273 0
c gate 274 -21 -273 0
-21 -274 0
-273 -274 0
21 273 274 0
c gate 275 50 123 0
50 -275 0
123 -275 0
-50 -123 275 0
c gate 276 -16 -104 0
-16 -276 0
-104 -276 0
16 104 276 0
c gate 277 -6 -8 0
-6 -277 0
-8 -277 0
6 8 277 0
c gate 278 50 -277 0
50 -278 0
-277 -278 0
-50 277 278 0
c gate 279 276 -278 0
276 -279 0
-278 -279 0
-276 278 279 0
c gate 280 -275 -279 0
-275 -280 0
-279 -280 0
275 279 280 0
c gate 281 -274 280 0
-274 -281 0
280 -281 0
274 -280 281 0
c gate 282 274 -280 0
274 -282 0
-280 -282 0
-274 280 282 0
c gate 283 -5 16 0
-5 -283 0
16 -283 0
5 -16 283 0
c gate 284 -108 -283 0
-108 -284 0
-283 -284 0
108 283 284 0
c gate 285 -4 -9 0
-4 -285 0
-9 -285 0
4 9 285 0
c gate 286 117 -285 0
117 -286 0
-285 -286 0
-117 285 286 0
c gate 287 8 -285 0
8 -287 0
-285 -287 0
-8 285 287 0
c gate 288 6 -107 0
6 -288 0
-107 -288 0
-6 107 288 0
c gate 289 -287 288 0
-287 -289 0
288 -289 0
287 -288 289 0
c gate 290 -286 -289 0
-286 -290 0
-289 -290 0
286 289 290 0
c gate 291 5 -290 0
5 -291 0
-290 -291 0
-5 290 291 0
c gate 292 -5 6 0
-5 -292 0
6 -292 0
5 -6 292 0
c gate 293 27 292 0
27 -293 0
292 -293 0
-27 -292 293 0
c gate 294 -291 -293 0
-291 -294 0
-293 -294 0
291 293 294 0
c gate 295 284 294 0
284 -295 0
294 -295 0
-284 -294 295 0
c gate 296 -11 -295 0
-11 -296 0
-295 -296 0
11 295 296 0
c gate 297 122 252 0
122 -297 0
252 -297 0
-122 -252 297 0
c gate 298 -107 -297 0
-107 -298 0
-297 -298 0
107 297 298 0
c gate 299 296 298 0
296 -299 0
298 -299 0
-296 -298 299 0
c gate 300 -296 297 0
-296 -300 0
297 -300 0
296 -297 300 0
c gate 301 11 -143 0
11 -301 0
-143 -301 0
-11 143 301 0
c gate 302 -31 301 0
-31 -302 0
301 -302 0
31 -301 302 0
c gate 303 -300 -302 0
-300 -303 0
-302 -303 0
300 302 303 0
c gate 304 -299 303 0
-299 -304 0
303 -304 0
299 -303 304 0
c gate 305 7 -295 0
7 -305 0
-295 -305 0
-7 295 305 0
c gate 306 -4 -305 0
-4 -306 0
-305 -306 0
4 305 306 0
c gate 307 74 -306 0
74 -307 0
-306 -307 0
-74 306 307 0
c gate 308 4 305 0
4 -308 0
305 -308 0
-4 -305 308 0
c gate 309 307 -308 0
307 -309 0
-308 -309 0
-307 308 309 0
c gate 310 304 -309 0
304 -310 0
-309 -310 0
-304 309 310 0
c gate 311 282 -310 0
282 -311 0
-310 -311 0
-282 310 311 0
c gate 312 -281 -311 0
-281 -312 0
-311 -312 0
281 311 312 0
c gate 313 -11 -312 0
-11 -313 0
-312 -313 0
11 312 313 0
c gate 314 2 276 0
2 -314 0
276 -314 0
-2 -276 314 0
c gate 315 73 314 0
73 -315 0
314 -315 0
-73 -314 315 0
c gate 316 -10 39 0
-10 -316 0
39 -316 0
10 -39 316 0
c gate 317 280 316 0
280 -317 0
316 -317 0
-280 -316 317 0
c gate 318 -315 -317 0
-315 -318 0
-317 -318 0
315 317 318 0
c gate 319 -310 -318 0
-310 -319 0
-318 -319 0
310 318 319 0
c gate 320 -10 -280 0
-10 -320 0
-280 -320 0
10 280 320 0
c gate 321 -11 -314 0
-11 -321 0
-314 -321 0
11 314 321 0
c gate 322 -40 -321 0
-40 -322 0
-321 -322 0
40 321 322 0
c gate 323 -320 322 0
-320 -323 0
322 -323 0
320 -322 323 0
c gate 324 310 323 0
310 -324 0
323 -324 0
-310 -323 324 0
c gate 325 -319 -324 0
-319 -325 0
-324 -325 0
319 324 325 0
c gate 326 -313 325 0
-313 -326 0
325 -326 0
313 -325 326 0
c gate 327 -3 -326 0
-3 -327 0
-326 -327 0
3 326 327 0
c gate 328 282 310 0
282 -328 0
310 -328 0
-282 -310 328 0
c gate 329 9 -274 0
9 -329 0
-274 -329 0
-9 274 329 0
c gate 330 3 -329 0
3 -330 0
-329 -330 0
-3 329 330 0
c gate 331 -328 -330 0
-328 -331 0
-330 -331 0
328 330 331 0
c gate 332 11 -331 0
11 -332 0
-331 -332 0
-11 331 332 0
c gate 333 -2 11 0
-2 -333 0
11 -333 0
2 -11 333 0
c gate 334 -3 10 0
-3 -334 0
10 -334 0
3 -10 334 0
c gate 335 -333 -334 0
-333 -335 0
-334 -335 0
333 334 335 0
c gate 336 191 335 0
191 -336 0
335 -336 0
-191 -335 336 0
c gate 337 280 336 0
280 -337 0
336 -337 0
-280 -336 337 0
c gate 338 -332 -337 0
-332 -338 0
-337 -338 0
332 337 338 0
c gate 339 -327 338 0
-327 -339 0
338 -339 0
327 -338 339 0
c gate 340 -1 107 0
-1 -340 0
107 -340 0
1 -107 340 0
c gate 341 -284 -340 0
-284 -341 0
-340 -341 0
284 340 341 0
c gate 342 -4 -5 0
-4 -342 0
-5 -342 0
4 5 342 0
c gate 343 -26 -342 0
-26 -343 0
-342 -343 0
26 342 343 0
c gate 344 340 343 0
340 -344 0
343 -344 0
-340 -343 344 0
c gate 345 -341 -344 0
-341 -345 0
-344 -345 0
341 344 345 0
c gate 346 294 345 0
294 -346 0
345 -346 0
-294 -345 346 0
c gate 347 105 -346 0
105 -347 0
-346 -347 0
-105 346 347 0
c gate 348 307 -347 0
307 -348 0
-347 -348 0
-307 347 348 0
c gate 349 304 -348 0
304 -349 0
-348 -349 0
-304 348 349 0
c gate 350 282 -349 0
282 -350 0
-349 -350 0
-282 349 350 0
c gate 351 -281 -350 0
-281 -351 0
-350 -351 0
281 350 351 0
c gate 352 -11 -351 0
-11 -352 0
-351 -352 0
11 351 352 0
c gate 353 -318 -349 0
-318 -353 0
-349 -353 0
318 349 353 0
c gate 354 323 349 0
323 -354 0
349 -354 0
-323 -349 354 0
c gate 355 -353 -354 0
-353 -355 0
-354 -355 0
353 354 355 0
c gate 356 -352 355 0
-352 -356 0
355 -356 0
352 -355 356 0
c gate 357 -3 -356 0
-3 -357 0
-356 -357 0
3 356 357 0
c gate 358 282 349 0
282 -358 0
349 -358 0
-282 -349 358 0
c gate 359 -330 -358 0
-330 -359 0
-358 -359 0
330 358 359 0
c gate 360 11 -359 0
11 -360 0
-359 -360 0
-11 359 360 0
c gate 361 -337 -360 0
-337 -361 0
-360 -361 0
337 360 361 0
c gate 362 -357 361 0
-357 -362 0
361 -362 0
357 -361 362 0
c gate 363 -339 362 0
-339 -363 0
362 -363 0
339 -362 363 0
c gate 364 339 -362 0
339 -364 0
-362 -364 0
-339 362 364 0
c gate 365 -55 -207 0
-55 -365 0
-207 -365 0
55 207 365 0
c gate 366 55 207 0
55 -366 0
207 -366 0
-55 -207 366 0
c gate 367 -365 -366 0
-365 -367 0
-366 -367 0
365 366 367 0
c gate 368 5 -6 0
5 -368 0
-6 -368 0
-5 6 368 0
c gate 369 -292 -368 0
-292 -369 0
-368 -369 0
292 368 369 0
c gate 370 -10 50 0
-10 -370 0
50 -370 0
10 -50 370 0
c gate 371 -369 370 0
-369 -371 0
370 -371 0
369 -370 371 0
c gate 372 -73 -371 0
-73 -372 0
-371 -372 0
73 371 372 0
c gate 373 335 -372 0
335 -373 0
-372 -373 0
-335 372 373 0
c gate 374 11 -122 0
11 -374 0
-122 -374 0
-11 122 374 0
c gate 375 6 7 0
6 -375 0
7 -375 0
-6 -7 375 0
c gate 376 -128 -375 0
-128 -376 0
-375 -376 0
128 375 376 0
c gate 377 10 -376 0
10 -377 0
-376 -377 0
-10 376 377 0
c gate 378 114 -343 0
114 -378 0
-343 -378 0
-114 343 378 0
c gate 379 -11 -61 0
-11 -379 0
-61 -379 0
11 61 379 0
c gate 380 -378 379 0
-378 -380 0
379 -380 0
378 -379 380 0
c gate 381 -377 380 0
-377 -381 0
380 -381 0
377 -380 381 0
c gate 382 -374 -381 0
-374 -382 0
-381 -382 0
374 381 382 0
c gate 383 -1 -105 0
-1 -383 0
-105 -383 0
1 105 383 0
c gate 384 -106 -383 0
-106 -384 0
-383 -384 0
106 383 384 0
c gate 385 75 -384 0
75 -385 0
-384 -385 0
-75 384 385 0
c gate 386 -382 -385 0
-382 -386 0
-385 -386 0
382 385 386 0
c gate 387 41 386 0
41 -387 0
386 -387 0
-41 -386 387 0
c gate 388 -41 -386 0
-41 -388 0
-386 -388 0
41 386 388 0
c gate 389 -3 -388 0
-3 -389 0
-388 -389 0
3 388 389 0
c gate 390 -387 389 0
-387 -390 0
389 -390 0
387 -389 390 0
c gate 391 8 90 0
8 -391 0
90 -391 0
-8 -90 391 0
c gate 392 3 -10 0
3 -392 0
-10 -392 0
-3 10 392 0
c gate 393 -371 -392 0
-371 -393 0
-392 -393 0
371 392 393 0
c gate 394 -391 393 0
-391 -394 0
393 -394 0
391 -393 394 0
c gate 395 2 -394 0
2 -395 0
-394 -395 0
-2 394 395 0
c gate 396 -2 393 0
-2 -396 0
393 -396 0
2 -393 396 0
c gate 397 -395 -396 0
-395 -397 0
-396 -397 0
395 396 397 0
c gate 398 -39 397 0
-39 -398 0
397 -398 0
39 -397 398 0
c gate 399 390 398 0
390 -399 0
398 -399 0
-390 -398 399 0
c gate 400 -373 -399 0
-373 -400 0
-399 -400 0
373 399 400 0
c gate 401 9 -400 0
9 -401 0
-400 -401 0
-9 400 401 0
c gate 402 -374 -394 0
-374 -402 0
-394 -402 0
374 394 402 0
c gate 403 91 402 0
91 -403 0
402 -403 0
-91 -402 403 0
c gate 404 -11 -386 0
-11 -404 0
-386 -404 0
11 386 404 0
c gate 405 -374 -404 0
-374 -405 0
-404 -405 0
374 404 405 0
c gate 406 -9 -394 0
-9 -406 0
-394 -406 0
9 394 406 0
c gate 407 9 394 0
9 -407 0
394 -407 0
-9 -394 407 0
c gate 408 -406 -407 0
-406 -408 0
-407 -408 0
406 407 408 0
c gate 409 -405 408 0
-405 -409 0
408 -409 0
405 -408 409 0
c gate 410 -403 -409 0
-403 -410 0
-409 -410 0
403 409 410 0
c gate 411 3 -410 0
3 -411 0
-410 -411 0
-3 410 411 0
c gate 412 -3 394 0
-3 -412 0
394 -412 0
3 -394 412 0
c gate 413 -9 -392 0
-9 -413 0
-392 -413 0
9 392 413 0
c gate 414 -412 -413 0
-412 -414 0
-413 -414 0
412 413 414 0
c gate 415 -9 412 0
-9 -415 0
412 -415 0
9 -412 415 0
c gate 416 -414 -415 0
-414 -416 0
-415 -416 0
414 415 416 0
c gate 417 405 416 0
405 -417 0
416 -417 0
-405 -416 417 0
c gate 418 -9 -397 0
-9 -418 0
-397 -418 0
9 397 418 0
c gate 419 390 418 0
390 -419 0
418 -419 0
-390 -418 419 0
c gate 420 -417 -419 0
-417 -420 0
-419 -420 0
417 419 420 0
c gate 421 -411 420 0
-411 -421 0
420 -421 0
411 -420 421 0
c gate 422 -401 421 0
-401 -422 0
421 -422 0
401 -421 422 0
c gate 423 -11 -381 0
-11 -423 0
-381 -423 0
11 381 423 0
c gate 424 396 423 0
396 -424 0
423 -424 0
-396 -423 424 0
c gate 425 -3 -374 0
-3 -425 0
-374 -425 0
3 374 425 0
c gate 426 -395 425 0
-395 -426 0
425 -426 0
395 -425 426 0
c gate 427 -424 426 0
-424 -427 0
426 -427 0
424 -426 427 0
c gate 428 40 394 0
40 -428 0
394 -428 0
-40 -394 428 0
c gate 429 -380 392 0
-380 -429 0
392 -429 0
380 -392 429 0
c gate 430 -428 -429 0
-428 -430 0
-429 -430 0
428 429 430 0
c gate 431 -427 430 0
-427 -431 0
430 -431 0
427 -430 431 0
c gate 432 9 -431 0
9 -432 0
-431 -432 0
-9 431 432 0
c gate 433 -41 382 0
-41 -433 0
382 -433 0
41 -382 433 0
c gate 434 41 -382 0
41 -434 0
-382 -434 0
-41 382 434 0
c gate 435 -397 -434 0
-397 -435 0
-434 -435 0
397 434 435 0
c gate 436 -433 435 0
-433 -436 0
435 -436 0
433 -435 436 0
c gate 437 402 -423 0
402 -437 0
-423 -437 0
-402 423 437 0
c gate 438 -3 -437 0
-3 -438 0
-437 -438 0
3 437 438 0
c gate 439 -436 438 0
-436 -439 0
438 -439 0
436 -438 439 0
c gate 440 413 -439 0
413 -440 0
-439 -440 0
-413 439 440 0
c gate 441 -432 -440 0
-432 -441 0
-440 -441 0
432 440 441 0
c gate 442 -422 -441 0
-422 -442 0
-441 -442 0
422 441 442 0
c gate 443 422 441 0
422 -443 0
441 -443 0
-422 -441 443 0
c gate 444 -442 -443 0
-442 -444 0
-443 -444 0
442 443 444 0
c gate 445 -202 -444 0
-202 -445 0
-444 -445 0
202 444 445 0
c gate 446 -367 445 0
-367 -446 0
445 -446 0
367 -445 446 0
c gate 447 -364 446 0
-364 -447 0
446 -447 0
364 -446 447 0
c gate 448 -363 447 0
-363 -448 0
447 -448 0
363 -447 448 0
c gate 449 -272 448 0
-272 -449 0
448 -449 0
272 -448 449 0
c gate 450 -271 449 0
-271 -450 0
449 -450 0
271 -449 450 0
c gate 451 -270 450 0
-270 -451 0
450 -451 0
270 -450 451 0
c gate 452 -269 451 0
-269 -452 0
451 -452 0
269 -451 452 0
c PO
-452 0
